Reading model...
...model read.
creating competitive generators file...
...competitive generators recorded.
Loading data...
.. real-time data read.
Compiling instance...
...instance created.
Creating Offer Mitigation (model will solve as dispatch if TRUE)...
...storage offer mitigation file created
Converting model to MPEC...
...converted
NOTE: initial MIP solve with only storage competitive to get feasible solution
Solving...

Welcome to IBM(R) ILOG(R) CPLEX(R) Interactive Optimizer 12.9.0.0
  with Simplex, Mixed Integer & Barrier Optimizers
5725-A06 5725-A29 5724-Y48 5724-Y49 5724-Y54 5724-Y55 5655-Y21
Copyright IBM Corp. 1988, 2019.  All Rights Reserved.

Type 'help' for a list of available commands.
Type 'help' followed by a command name for more
information on commands.

CPLEX> Logfile 'cplex.log' closed.
Logfile 'C:\Users\llavin\Desktop\test826\logs\tmp3vbey6fs.cplex.log' open.
CPLEX> New value for parallel optimization mode: -1
CPLEX> New value for mixed integer optimality gap tolerance: 0.02
CPLEX> New value for emphasis for MIP optimization: 1
CPLEX> New value for integrality tolerance: 1e-12
CPLEX> New value for deterministic time limit in ticks: 50000
CPLEX> Problem 'C:\Users\llavin\Desktop\test826\logs\tmp1d78wbu6.pyomo.lp' read.
Read time = 0.53 sec. (27.94 ticks)
CPLEX> Problem name         : C:\Users\llavin\Desktop\test826\logs\tmp1d78wbu6.pyomo.lp
Objective sense      : Maximize
Variables            :  107795  [Nneg: 1,  Box: 44062,  Free: 8928,
                                 Binary: 54804]
Objective nonzeros   :   17428
Linear constraints   :  247025  [Less: 82874,  Greater: 118442,  Equal: 45709]
  Nonzeros           :  624785
  RHS nonzeros       :  134903

Variables            : Min LB: -5000.000        Max UB: 1000000.       
Objective nonzeros   : Min   : 0.01666667       Max   : 208.3333       
Linear constraints   :
  Nonzeros           : Min   : 0.01666667       Max   : 1000000.       
  RHS nonzeros       : Min   : 0.01666667       Max   : 1000000.       
CPLEX> CPXPARAM_Parallel                                -1
CPXPARAM_Emphasis_MIP                            1
CPXPARAM_DetTimeLimit                            50000
CPXPARAM_MIP_Tolerances_MIPGap                   0.02
CPXPARAM_MIP_Tolerances_Integrality              9.9999999999999998e-13
Tried aggregator 3 times.
MIP Presolve eliminated 181350 rows and 41369 columns.
MIP Presolve added 6004 rows and 0 columns.
MIP Presolve modified 49332 coefficients.
Aggregator did 25787 substitutions.
Reduced MIP has 45892 rows, 39007 columns, and 161024 nonzeros.
Reduced MIP has 15325 binaries, 0 generals, 0 SOSs, and 0 indicators.
Presolve time = 0.64 sec. (390.44 ticks)
Probing fixed 731 vars, tightened 9666 bounds.
Probing time = 0.36 sec. (14.92 ticks)
Tried aggregator 2 times.
MIP Presolve eliminated 1658 rows and 1464 columns.
MIP Presolve modified 5367 coefficients.
Aggregator did 86 substitutions.
Reduced MIP has 44148 rows, 37457 columns, and 155721 nonzeros.
Reduced MIP has 14593 binaries, 0 generals, 0 SOSs, and 0 indicators.
Presolve time = 0.25 sec. (228.40 ticks)
Probing fixed 3 vars, tightened 735 bounds.
Probing time = 0.48 sec. (18.67 ticks)
Clique table members: 86196.
MIP emphasis: integer feasibility.
MIP search method: dynamic search.
Parallel mode: opportunistic, using up to 32 threads.
Root relaxation solution time = 1.30 sec. (2141.80 ticks)

        Nodes                                         Cuts/
   Node  Left     Objective  IInf  Best Integer    Best Bound    ItCnt     Gap

      0     0     1321.4604   779                   1321.4604    10498         
*     0     0      integral     0     1321.4604     1321.4604    10498    0.00%
Elapsed time = 4.52 sec. (3987.82 ticks, tree = 0.01 MB, solutions = 1)

Root node processing (before b&c):
  Real time             =    4.55 sec. (3991.72 ticks)
Parallel b&c, 32 threads:
  Real time             =    0.00 sec. (0.00 ticks)
  Sync time (average)   =    0.00 sec.
  Wait time (average)   =    0.00 sec.
                          ------------
Total (root+branch&cut) =    4.55 sec. (3991.72 ticks)

Solution pool: 1 solution saved.

MIP - Integer optimal solution:  Objective =  1.3214604390e+03
Solution time =    4.59 sec.  Iterations = 10498  Nodes = 0
Deterministic time = 3992.03 ticks  (868.97 ticks/sec)

CPLEX> Incumbent solution written to file 'C:\Users\llavin\Desktop\test826\logs\tmp0z406rwb.cplex.sol'.
CPLEX> NOTE: no warmstart specified for MIP iteration, default behavior is true
NOTE: resolving with all competitive generators using storage-only solution to warmstart
Solving...

Welcome to IBM(R) ILOG(R) CPLEX(R) Interactive Optimizer 12.9.0.0
  with Simplex, Mixed Integer & Barrier Optimizers
5725-A06 5725-A29 5724-Y48 5724-Y49 5724-Y54 5724-Y55 5655-Y21
Copyright IBM Corp. 1988, 2019.  All Rights Reserved.

Type 'help' for a list of available commands.
Type 'help' followed by a command name for more
information on commands.

CPLEX> Logfile 'cplex.log' closed.
Logfile 'C:\Users\llavin\Desktop\test826\logs\tmpsnd7rau6.cplex.log' open.
CPLEX> New value for parallel optimization mode: -1
CPLEX> New value for mixed integer optimality gap tolerance: 0.02
CPLEX> New value for emphasis for MIP optimization: 1
CPLEX> New value for integrality tolerance: 1e-12
CPLEX> New value for deterministic time limit in ticks: 50000
CPLEX> Problem 'C:\Users\llavin\Desktop\test826\logs\tmpb4b42qw7.pyomo.lp' read.
Read time = 0.53 sec. (27.99 ticks)
CPLEX> MIP start file 'C:\Users\llavin\Desktop\test826\logs\tmpxwk3lgen.cplex.mst' read.
CPLEX> Problem name         : C:\Users\llavin\Desktop\test826\logs\tmpb4b42qw7.pyomo.lp
Objective sense      : Maximize
Variables            :  109235  [Nneg: 1,  Box: 45502,  Free: 8928,
                                 Binary: 54804]
Objective nonzeros   :   18820
Linear constraints   :  247025  [Less: 82874,  Greater: 118442,  Equal: 45709]
  Nonzeros           :  624785
  RHS nonzeros       :  134903

Variables            : Min LB: -5000.000        Max UB: 1000000.       
Objective nonzeros   : Min   : 0.01666667       Max   : 208.3333       
Linear constraints   :
  Nonzeros           : Min   : 0.01666667       Max   : 1000000.       
  RHS nonzeros       : Min   : 0.01666667       Max   : 1000000.       
CPLEX> CPXPARAM_Parallel                                -1
CPXPARAM_Emphasis_MIP                            1
CPXPARAM_DetTimeLimit                            50000
CPXPARAM_MIP_Tolerances_MIPGap                   0.02
CPXPARAM_MIP_Tolerances_Integrality              9.9999999999999998e-13
Warning:  No solution found from 1 MIP starts.
Retaining values of one MIP start for possible repair.
Tried aggregator 3 times.
MIP Presolve eliminated 181350 rows and 42809 columns.
MIP Presolve added 6004 rows and 0 columns.
MIP Presolve modified 49332 coefficients.
Aggregator did 25787 substitutions.
Reduced MIP has 45892 rows, 39007 columns, and 161024 nonzeros.
Reduced MIP has 15325 binaries, 0 generals, 0 SOSs, and 0 indicators.
Presolve time = 0.64 sec. (391.17 ticks)
Probing fixed 731 vars, tightened 9666 bounds.
Probing time = 0.36 sec. (14.92 ticks)
Tried aggregator 2 times.
MIP Presolve eliminated 1658 rows and 1464 columns.
MIP Presolve modified 5367 coefficients.
Aggregator did 86 substitutions.
Reduced MIP has 44148 rows, 37457 columns, and 155721 nonzeros.
Reduced MIP has 14593 binaries, 0 generals, 0 SOSs, and 0 indicators.
Presolve time = 0.25 sec. (228.41 ticks)
Probing fixed 3 vars, tightened 735 bounds.
Probing time = 0.48 sec. (18.67 ticks)
Clique table members: 86196.
MIP emphasis: integer feasibility.
MIP search method: dynamic search.
Parallel mode: opportunistic, using up to 32 threads.
Root relaxation solution time = 1.39 sec. (2178.96 ticks)

        Nodes                                         Cuts/
   Node  Left     Objective  IInf  Best Integer    Best Bound    ItCnt     Gap

      0     0    33474.6795   974                  33474.6795    11497         
      0     0    33474.3699   165                   Cuts: 182    11589         
      0     0    33473.6403   241                   Cuts: 161    11744         
      0     0    33473.6403   244                    Cuts: 97    11757         
Repair heuristic found nothing.
      0    25    33463.3072   241                Impl Bds: 40    12203         
Elapsed time = 9.09 sec. (5604.79 ticks, tree = 0.03 MB, solutions = 0)
    573   110    33448.8069   221                  33469.0382    12544         
   1115   925    33451.4147   216                  33469.0382    14133         
   1815  1084    33446.0666   193                  33469.0382    14387         
   2313  1582    33446.5043   133                  33469.0382    15653         
   2581  1966    33440.8126   127                  33469.0382    17540         
   2868  2495    33419.2383   121                  33469.0382    20884         
   3201  2609    33373.0865   118                  33469.0382    21859         
   3607  3043    33416.2494   115                  33469.0382    26572         
   4016  3516    33375.0423    65                  33469.0382    30759         
   5702  4465    33385.5822    83                  33469.0382    45691         
Elapsed time = 29.64 sec. (8713.32 ticks, tree = 152.06 MB, solutions = 1)
*  6248  5542      integral     0    33344.9913    33469.0382    64983    0.37%
*  6951  5380      integral     0    33345.9826    33469.0382    63206    0.37%

Implied bound cuts applied:  42
Flow cuts applied:  214
Mixed integer rounding cuts applied:  44

Root node processing (before b&c):
  Real time             =    7.03 sec. (5569.70 ticks)
Parallel b&c, 32 threads:
  Real time             =   24.97 sec. (4122.67 ticks)
  Sync time (average)   =    0.74 sec.
  Wait time (average)   =    0.00 sec.
                          ------------
Total (root+branch&cut) =   32.00 sec. (9692.37 ticks)

Solution pool: 4 solutions saved.

MIP - Integer optimal, tolerance (0.02/1e-06):  Objective =  3.3345982612e+04
Current MIP best bound =  3.3469038177e+04 (gap = 123.056, 0.37%)
Solution time =   32.05 sec.  Iterations = 79614  Nodes = 7034 (5816)
Deterministic time = 9692.68 ticks  (302.45 ticks/sec)

CPLEX> Incumbent solution written to file 'C:\Users\llavin\Desktop\test826\logs\tmpnk9_1e3l.cplex.sol'.
CPLEX> Exporting results... 
